0001110000000000
0011111110000000
0011111111000000
0011111111000000
0000001111000000
0000001111000000
0000001111000000
0000001111000000
0000001111000000
0000001111000000
0000001111000000
0000001111000000
0000001111000000
0000001111000000
0000000000000000
0000000000000000
